c nombre: 9
c densidad: 0.1
p edges 90 416
e 1 11
e 1 12
e 1 17
e 1 27
e 1 37
e 1 39
e 1 42
e 1 49
e 1 50
e 1 67
e 1 70
e 1 79
e 1 84
e 1 86
e 2 14
e 2 21
e 2 30
e 2 41
e 2 42
e 2 51
e 2 59
e 2 65
e 2 81
e 3 6
e 3 9
e 3 10
e 3 21
e 3 27
e 3 28
e 3 29
e 3 52
e 3 57
e 4 9
e 4 13
e 4 17
e 4 21
e 4 23
e 4 25
e 4 28
e 4 39
e 4 55
e 4 57
e 4 75
e 5 8
e 5 9
e 5 11
e 5 20
e 5 24
e 5 26
e 5 38
e 5 49
e 5 54
e 5 73
e 5 74
e 5 82
e 5 84
e 5 86
e 6 17
e 6 19
e 6 27
e 6 28
e 6 32
e 6 34
e 6 38
e 6 53
e 6 57
e 6 60
e 6 63
e 6 64
e 6 67
e 6 68
e 6 80
e 6 89
e 6 90
e 7 10
e 7 15
e 7 16
e 7 25
e 7 30
e 7 45
e 7 49
e 7 51
e 7 53
e 7 74
e 7 81
e 8 31
e 8 33
e 8 39
e 8 47
e 8 54
e 8 71
e 8 84
e 8 87
e 9 15
e 9 17
e 9 22
e 9 31
e 9 33
e 9 56
e 9 57
e 9 58
e 9 63
e 9 68
e 9 80
e 9 81
e 9 82
e 9 90
e 10 11
e 10 18
e 10 30
e 10 33
e 10 37
e 10 38
e 10 40
e 10 50
e 10 54
e 11 23
e 11 30
e 11 31
e 11 36
e 11 45
e 11 55
e 11 57
e 11 59
e 11 71
e 11 75
e 11 78
e 11 79
e 11 80
e 12 42
e 12 59
e 12 68
e 12 80
e 12 81
e 12 88
e 13 22
e 13 29
e 13 31
e 13 46
e 13 69
e 13 85
e 14 19
e 14 30
e 14 41
e 14 42
e 14 50
e 14 57
e 14 68
e 14 71
e 14 82
e 15 16
e 15 30
e 15 41
e 15 47
e 15 54
e 15 55
e 16 17
e 16 23
e 16 41
e 16 42
e 16 47
e 16 66
e 16 82
e 16 83
e 17 25
e 17 29
e 17 34
e 17 44
e 17 57
e 18 22
e 18 24
e 18 39
e 18 54
e 18 63
e 18 80
e 18 90
e 19 29
e 19 37
e 19 40
e 19 54
e 19 58
e 19 75
e 19 76
e 19 77
e 19 82
e 19 83
e 19 86
e 20 24
e 20 41
e 20 48
e 20 49
e 20 64
e 20 65
e 20 73
e 20 87
e 20 89
e 21 38
e 21 48
e 21 67
e 21 77
e 21 78
e 21 90
e 22 51
e 22 65
e 22 83
e 23 28
e 23 61
e 23 67
e 23 85
e 24 25
e 24 49
e 24 53
e 24 78
e 24 82
e 24 83
e 25 35
e 25 38
e 25 70
e 25 75
e 25 82
e 26 62
e 26 63
e 26 72
e 26 82
e 26 84
e 27 28
e 27 45
e 27 49
e 27 70
e 28 37
e 28 54
e 28 58
e 28 80
e 29 30
e 29 32
e 29 63
e 30 35
e 30 42
e 30 70
e 30 71
e 30 73
e 31 37
e 31 58
e 31 63
e 31 64
e 31 76
e 31 79
e 31 89
e 32 46
e 32 49
e 32 61
e 32 70
e 32 74
e 32 77
e 32 85
e 32 90
e 33 34
e 33 52
e 33 75
e 33 78
e 33 79
e 34 39
e 34 40
e 34 58
e 34 62
e 34 67
e 34 70
e 34 75
e 34 87
e 34 88
e 35 73
e 35 74
e 35 78
e 35 81
e 36 38
e 36 57
e 36 61
e 36 62
e 36 77
e 36 78
e 37 50
e 37 60
e 37 69
e 37 85
e 38 51
e 38 68
e 38 70
e 39 48
e 39 57
e 39 75
e 39 80
e 40 51
e 40 54
e 40 56
e 40 86
e 41 46
e 41 49
e 41 58
e 41 59
e 41 85
e 42 46
e 42 55
e 42 57
e 42 59
e 42 80
e 43 52
e 43 58
e 43 67
e 43 87
e 43 90
e 44 65
e 44 70
e 45 46
e 45 63
e 45 88
e 46 52
e 46 56
e 46 61
e 46 68
e 46 75
e 47 56
e 47 63
e 47 64
e 47 74
e 49 73
e 49 75
e 50 55
e 50 60
e 50 65
e 50 68
e 50 76
e 50 80
e 50 84
e 51 71
e 51 83
e 51 89
e 51 90
e 52 85
e 52 88
e 53 54
e 53 66
e 54 71
e 54 83
e 54 85
e 55 65
e 55 68
e 55 84
e 56 67
e 56 72
e 56 85
e 56 86
e 56 87
e 57 82
e 57 85
e 58 77
e 59 83
e 60 63
e 60 81
e 60 87
e 61 65
e 61 87
e 61 89
e 62 67
e 62 83
e 62 88
e 63 66
e 63 67
e 63 70
e 63 76
e 63 78
e 63 80
e 63 84
e 64 67
e 64 70
e 64 78
e 64 79
e 65 87
e 66 86
e 67 70
e 67 76
e 67 80
e 67 81
e 67 85
e 68 70
e 70 71
e 70 77
e 70 89
e 71 73
e 71 79
e 71 90
e 72 77
e 72 83
e 72 86
e 72 90
e 73 80
e 73 89
e 75 78
e 75 83
e 76 79
e 76 83
e 76 87
e 77 82
e 77 84
e 77 89
e 78 82
e 79 84
e 79 87
e 79 90
e 81 82
e 81 89
e 82 86
e 82 90
e 83 85
e 84 86
e 85 90
e 86 88
